LatticeConstant  1.0 Ang
%block LatticeVectors
    25.000000000000000     0.000000000000000     0.000000000000000
    0.000000000000000     25.000000000000000     0.000000000000000
    0.000000000000000     0.000000000000000     25.000000000000000
%endblock LatticeVectors

PAO.BasisSize TZ3P

PAO.SplitNorm 0.16
XC.authors  PBE
MeshCutoff  500 Ry
XC.functional  GGA
SCF.Mixer.Method Pulay
SCF.Mixer.Weight 0.3
SCF.Mixer.History 7
SCF.DM.Tolerance 0.00005
SCF.H.Converge F
SCF.EDM.Converge F
SCF.FreeE.Converge F
