SystemName  siesta
SystemLabel  siesta

NumberOfSpecies  2
NumberOfAtoms  288
%block ChemicalSpecieslabel
    1 8 O
    2 1 H
%endblock ChemicalSpecieslabel

LatticeConstant  1.0 Ang
%block LatticeVectors
    14.21500000000000     0.000000000000000     0.000000000000000 
    0.000000000000000     14.21500000000000     0.000000000000000 
    0.000000000000000     0.000000000000000     14.21500000000000
%endblock LatticeVectors

%block PAO.Basis
O.vdw.1     3     -0.24233
n=2   0   2   E    23.36061     3.39721
     4.50769     2.64066
     1.00000     1.00000
n=2   1   2   E     2.78334     5.14253
     6.14996     2.59356
     1.00000     1.00000
n=3   2   1   E    63.98188     0.16104
     3.54403
     1.00000
H.vdw.2 2      0.46527
n=1   0   2   E    99.93138     2.59932
     4.20357     1.84463
     1.00000     1.00000
n=2   1   1   E    24.56504     2.20231
     3.52816
     1.00000
%endblock PAO.Basis

MD.TypeOfRun Nose
MD.InitialTemperature 300 K
MD.TargetTemperature 300 K
XC.functional  GGA
XC.authors  PBE
MeshCutoff  300 Ry

