LatticeConstant  1.0 Ang
%block LatticeVectors
    30.000000000000000     0.000000000000000     0.000000000000000
    0.000000000000000     30.000000000000000     0.000000000000000
    0.000000000000000     0.000000000000000     30.000000000000000
%endblock LatticeVectors
%block PAO.BasisSizes
    C DZP
    H DZP
%endblock PAO.BasisSizes

XC.authors  PBE
MeshCutoff  400 Ry
XC.functional  GGA

SaveDeltaRHO T
SCF.Mixer.Method Pulay
SCF.Mixer.Weight 0.3
SCF.Mixer.History 7
SCF.DM.Tolerance 0.0002
SCF.H.Converge F
SCF.EDM.Converge F
SCF.FreeE.Converge T


