LatticeConstant  1.0 Ang
%block LatticeVectors
    20.000000000000000     0.000000000000000     0.000000000000000
    0.000000000000000     20.000000000000000     0.000000000000000
    0.000000000000000     0.000000000000000     20.000000000000000
%endblock LatticeVectors


%block PAO.Basis # QZDPQ-8.5
O 3
n=2 0 4 E 50. 7.5
    8.0 5.0 3.5 2.0
n=2 1 4 E 10. 8.3
    8.5 5.0 3.5 2.0
n=3 2 2 E 40. 8.3 Q 6.
    8.5 2.2
H 2
n=1 0 4 E 50. 8.3
    8.5 5.0 3.5 2.0
n=2 1 2 E 20. 7.8 Q 3.5
    8.0 2.0
%endblock PAO.Basis

XC.authors  PBE
MeshCutoff  600 Ry
XC.functional  GGA

SCF.Mixer.Method Pulay
SCF.Mixer.Weight 0.3
SCF.Mixer.History 7
SCF.DM.Tolerance 0.00001
SCF.H.Converge F
SCF.EDM.Converge F
SCF.FreeE.Converge T
PAO.EnergyShift 10 meV
PAO.SplitNorm   0.15
PAO.OldStylePolOrbs F
PAO.BasisSize TZ3P

