LatticeConstant  1.0 Ang
%block LatticeVectors
    10.000000000000000     0.000000000000000     0.000000000000000
    0.000000000000000     10.000000000000000     0.000000000000000
    0.000000000000000     0.000000000000000     10.000000000000000
%endblock LatticeVectors

PAO.BasisSize DZP
XC.authors  PBE
MeshCutoff  200 Ry
XC.functional  GGA

SaveDeltaRho T
SCF.Mixer.Method Pulay
SCF.Mixer.Weight 0.3
SCF.Mixer.History 7
SCF.DM.Tolerance 0.0002
SCF.H.Converge F
SCF.EDM.Converge F
SCF.FreeE.Converge T


